c A SAT instance generated from a 3-CNF formula that had 20 clauses and 10 variables
p cnf 10 20
-9 7 6 0
-3 -4 8 0
-9 -2 -6 0
2 8 -4 0
-1 -4 9 0
2 -9 -8 0
7 2 1 0
-5 3 -10 0
9 -5 1 0
-3 2 -9 0
-1 -5 10 0
4 6 -1 0
5 7 6 0
-3 -4 -1 0
8 -10 -5 0
-6 5 8 0
-5 -9 2 0
3 2 -6 0
8 3 -9 0
5 1 3 0
